n = 100;
C = 24677;
w = [538,853,681,686,769,448,432,926,202,729,489,533,954,362,256,830,438,965,557,586,257,129,550,654,789,843,430,587,958,600,189,71,955,138,273,45,446,641,659,97,158,748,580,182,451,649,162,699,474,281,838,131,753,879,504,356,550,714,29,538,3,89,88,701,500,639,22,417,620,968,454,197,445,738,665,318,414,359,238,508,362,434,362,228,71,120,598,832,588,649,433,709,422,302,967,699,629,182,346,818];
p = [538,853,681,686,769,448,432,926,202,729,489,533,954,362,256,830,438,965,557,586,257,129,550,654,789,843,430,587,958,600,189,71,955,138,273,45,446,641,659,97,158,748,580,182,451,649,162,699,474,281,838,131,753,879,504,356,550,714,29,538,3,89,88,701,500,639,22,417,620,968,454,197,445,738,665,318,414,359,238,508,362,434,362,228,71,120,598,832,588,649,433,709,422,302,967,699,629,182,346,818];
